
--- Job LAB1_Ejemplo03.gms Start 02/08/22 20:16:42 38.1.0 a1a3b545 WEX-WEI x86 64bit/MS Windows
--- Applying:
    C:\GAMS\38\gmsprmNT.txt
--- GAMS Parameters defined
    Input C:\Users\sebss\OneDrive\Escritorio\GAMS\Lab1\LAB1_Ejemplo03.gms
    PageSize 0
    ScrDir C:\Users\sebss\OneDrive\Escritorio\GAMS\Lab1\225a\
    SysDir C:\GAMS\38\
    LogOption 3
    ErrMsg 1
    ErrorLog 99
    IDE 1
    LstTitleLeftAligned 1
Licensee: GAMS Demo license for Sebastian Ramiro EntrerriG220207|0002CO-GEN
          Universidad Rey Juan Carlos, Spain                       DL059758
          C:\GAMS\38\gamslice.txt
          sr.entrerrios.2020@alumnos.urjc.es, Sebastian Ramiro Entrerrios G
          Demo license for demonstration and instructional purposes only
Processor information: 1 socket(s), 4 core(s), and 8 thread(s) available
GAMS 38.1.0   Copyright (C) 1987-2022 GAMS Development. All rights reserved
--- Starting compilation
--- LAB1_Ejemplo03.gms(28) 2 Mb
--- Starting execution: elapsed 0:00:00.008
--- Generating MIP model Lab1_Ejemplo03
--- LAB1_Ejemplo03.gms(28) 3 Mb
---   4 rows  3 columns  9 non-zeroes
--- Executing CPLEX (Solvelink=2): elapsed 0:00:00.019

IBM ILOG CPLEX   38.1.0 a1a3b545 Jan 31, 2022          WEI x86 64bit/MS Window

--- *** This solver runs with a demo license. No commercial use.
--- GMO setup time: 0.00s
--- GMO memory 0.50 Mb (peak 0.50 Mb)
--- Dictionary memory 0.00 Mb
--- Cplex 20.1.0.1 link memory 0.00 Mb (peak 0.00 Mb)
--- Starting Cplex

Version identifier: 20.1.0.1 | 2021-04-07 | 3a818710c
CPXPARAM_Advance                                 0
CPXPARAM_Simplex_Display                         2
CPXPARAM_Threads                                 1
CPXPARAM_MIP_Display                             4
CPXPARAM_MIP_Pool_Capacity                       0
CPXPARAM_MIP_Tolerances_AbsMIPGap                0
Tried aggregator 1 time.
LP Presolve eliminated 0 rows and 1 columns.
Reduced LP has 3 rows, 2 columns, and 6 nonzeros.
Presolve time = 0.00 sec. (0.00 ticks)

Iteration      Dual Objective            In Variable           Out Variable
     1  I            0.000000                     x1    restriccion_1 slack
     2              62.400000                     x2    restriccion_3 slack

--- LP status (1): optimal.
--- Cplex Time: 0.00sec (det. 0.01 ticks)


Optimal solution found
Objective:           62.400000

--- Reading solution for model Lab1_Ejemplo03
*** Status: Normal completion
--- Job LAB1_Ejemplo03.gms Stop 02/08/22 20:16:42 elapsed 0:00:00.077
